N = 8;
H = 6;
T = 2;

avail = array3d(1..N, 1..H, 1..T, [9, 5, 3, 2, 7, 2, 4, 0, 5, 8, 8, 5, 6, 6, 5, 2, 10, 4, 0, 7, 7, 6, 1, 3, 2, 6, 6, 10, 6, 4, 8, 4, 4, 5, 8, 10, 7, 9, 0, 10, 5, 0, 2, 9, 3, 5, 6, 10, 6, 0, 1, 3, 5, 3, 7, 10, 8, 2, 0, 8, 6, 1, 1, 5, 3, 10, 9, 10, 0, 6, 9, 7, 7, 1, 1, 2, 10, 0, 3, 8, 3, 5, 9, 8, 0, 8, 9, 10, 1, 4, 0, 1, 1, 4, 7, 3]);

r = array2d(1..H, 1..T, [1, 4, 3, 3, 1, 2, 2, 1, 4, 2, 2, 3]);
